9364
5118
3180
6879
7024
7105
9974
639
5587
8290
7933
9408
6103
7633
870
5974
7003
3607
9958
3269
9931
3107
7956
10096
5197
3363
7778
3626
3462
8013
8107
7300
8317
7472
5548
4988
5298
5817
4211
9244
7815
2049
10085
5505
7357
9176
6642
8956
6258
9207
